/*********************************************
 * OPL 12.6.0.0 Data
 * Author: Adrian Rodriguez Bazaga, Pau Rodriguez Esmerats
 * Creation Date: 10/12/2017 at 12:54:00
 *********************************************/

maxConsec=8;
maxPresence=24;
maxHours=16;
minHours=12;
hours=24;
demand= [32 36 40 27 31 17 25 25 33 34 37 31 31 25 24 25 29 30 27 14 14 5 4 0  ];
nNurses=64;
